100
[20,21,22,23,24,25,26,27,28,29,30,31,32,33,34,35,36,37,38,39,40,41,42,43,44,45,46,47,48,49,50,51,52,53,54,55,56,57,58,59,60,61,62,63,64,65,66,67,68,69,70]
[20,22,24,13,12,28,20,25,20,11,18,20,17,21,27,18,26,22,19,15,21,14,16,23,16,25,14,21,22,18,21,23,21,16,23,10,17,31,18,16,19,19,20,17,17,14,21,28,20,18,23]
